c SAT problem
p wcnf 383 1981
1 60 -75 0
1 -60 3150 0
1 60 3165 0
1 -75 -3120 0
1 90 -3105 0
1 -90 -3060 0
1 -90 91 0
1 -90 -3165 0
1 -105 3150 0
1 105 -3120 0
1 105 3165 0
1 -3120 196 0
1 -3120 105 0
1 -3120 181 0
1 -3120 -150 0
1 -3120 -120 0
1 3120 -90 0
1 -3120 -3135 0
1 3135 3136 0
1 -3135 196 0
1 3135 150 0
1 -3135 -90 0
1 3135 60 0
1 -3150 -166 0
1 3150 136 0
1 3150 -75 0
1 -3150 151 0
1 -3150 90 0
1 3165 105 0
1 3165 -121 0
1 -120 3060 0
1 120 3135 0
1 135 -136 0
1 -150 -3120 0
1 150 3135 0
1 -165 -3045 0
1 165 -166 0
1 165 3120 0
1 165 3060 0
1 -165 -150 0
1 165 -3135 0
1 3060 -3075 0
1 3060 165 0
1 -3060 240 0
1 -3060 180 0
1 3060 3061 0
1 3060 150 0
1 3060 90 0
1 3075 -3076 0
1 -3075 3060 0
1 3075 255 0
1 3090 -3105 0
1 3090 196 0
1 -3090 -135 0
1 -3090 -105 0
1 3090 211 0
1 -3090 181 0
1 3090 150 0
1 -3090 -90 0
1 3105 -135 0
1 3105 -240 0
1 3105 -181 0
1 -180 3045 0
1 180 3015 0
1 180 -3030 0
1 -180 -3000 0
1 195 3075 0
1 -210 3015 0
1 210 -3030 0
1 -210 -3000 0
1 225 -226 0
1 225 -3075 0
1 -225 3045 0
1 225 -210 0
1 -225 -3060 0
1 3000 300 0
1 3000 -210 0
1 3000 -150 0
1 -3000 3001 0
1 -3000 -315 0
1 3015 225 0
1 3015 195 0
1 -3015 165 0
1 3015 210 0
1 3015 150 0
1 3015 -3000 0
1 3030 225 0
1 -3030 195 0
1 3030 -240 0
1 -3030 -210 0
1 3030 150 0
1 3045 -195 0
1 3045 165 0
1 3045 -270 0
1 -3045 240 0
1 3045 -150 0
1 -3045 3030 0
1 3045 -315 0
1 61 -62 0
1 -91 3330 0
1 -91 -3270 0
1 -91 -3240 0
1 91 -106 0
1 -91 3345 0
1 91 -3315 0
1 91 90 0
1 106 3240 0
1 106 3285 0
1 -106 91 0
1 3300 -197 0
1 -3300 -91 0
1 -3300 -61 0
1 -3315 -166 0
1 -3315 -136 0
1 3315 -3316 0
1 -3315 -121 0
1 -3315 -91 0
1 -3330 -137 0
1 3330 -61 0
1 -3345 -167 0
1 -3345 -137 0
1 -3345 76 0
1 -3345 -152 0
1 -3345 61 0
1 121 3300 0
1 121 3270 0
1 -121 3315 0
1 121 -120 0
1 121 -3165 0
1 136 -135 0
1 136 3150 0
1 -136 3285 0
1 -136 -3255 0
1 -136 121 0
1 -151 -3210 0
1 -151 -3150 0
1 -151 3315 0
1 151 -150 0
1 151 3195 0
1 -151 3165 0
1 166 -165 0
1 166 -3150 0
1 166 3315 0
1 -166 -151 0
1 166 -3225 0
1 3240 3255 0
1 -3240 166 0
1 -3240 -3241 0
1 -3240 -91 0
1 3255 -136 0
1 3255 -3240 0
1 3255 241 0
1 3255 181 0
1 3270 256 0
1 3270 -227 0
1 -3270 136 0
1 3270 106 0
1 3270 182 0
1 3270 151 0
1 3270 -91 0
1 -3285 -3270 0
1 3285 136 0
1 -3285 106 0
1 3285 182 0
1 -3285 -3286 0
1 3285 91 0
1 181 -3105 0
1 181 196 0
1 181 3240 0
1 181 3210 0
1 -181 3090 0
1 181 180 0
1 181 182 0
1 -181 -3165 0
1 -181 -3135 0
1 196 -195 0
1 -196 197 0
1 196 -3120 0
1 -196 -181 0
1 -196 -3255 0
1 196 3225 0
1 -196 3165 0
1 -196 -3135 0
1 -211 3105 0
1 -211 226 0
1 211 3210 0
1 -211 3180 0
1 211 -3255 0
1 211 3195 0
1 226 3136 0
1 -226 227 0
1 226 3240 0
1 226 -3180 0
1 -226 -3151 0
1 -226 3090 0
1 -226 -3225 0
1 -3180 -226 0
1 -3180 196 0
1 -3180 166 0
1 3180 -301 0
1 -3180 270 0
1 -3180 -3181 0
1 -3180 -240 0
1 -3180 316 0
1 3180 285 0
1 -3195 -240 0
1 3195 -3196 0
1 -3195 211 0
1 3195 -151 0
1 3210 256 0
1 -3210 301 0
1 3210 -241 0
1 3210 211 0
1 -3210 151 0
1 -3210 -316 0
1 -3210 -286 0
1 -3225 226 0
1 3225 211 0
1 3225 181 0
1 3225 3226 0
1 -3225 -286 0
1 240 -3105 0
1 -240 3151 0
1 -240 -3090 0
1 240 3121 0
1 -240 -3030 0
1 255 240 0
1 255 -3060 0
1 -255 -3030 0
1 255 -3195 0
1 255 3166 0
1 -270 3136 0
1 -270 3106 0
1 -270 3180 0
1 270 -3121 0
1 270 -3091 0
1 -270 3061 0
1 -270 -3195 0
1 270 -285 0
1 -285 -3136 0
1 -285 -3076 0
1 285 -3121 0
1 285 3091 0
1 -285 -3061 0
1 -285 -3166 0
1 -285 -286 0
1 3121 330 0
1 -3121 3120 0
1 -3121 -3122 0
1 -3121 -376 0
1 -3121 -315 0
1 -3121 255 0
1 -3136 361 0
1 3136 -330 0
1 -3136 211 0
1 -3136 -345 0
1 3136 315 0
1 -3151 -226 0
1 3151 361 0
1 3151 -331 0
1 3151 -3150 0
1 -3151 240 0
1 -3151 3152 0
1 3151 -211 0
1 -3151 -346 0
1 -3151 -285 0
1 -3166 226 0
1 -3166 361 0
1 -3166 301 0
1 3166 3151 0
1 3166 376 0
1 3166 -285 0
1 300 3106 0
1 300 3076 0
1 -300 301 0
1 -300 3091 0
1 -300 3000 0
1 315 -3015 0
1 315 3061 0
1 -315 -3000 0
1 330 3076 0
1 -330 -3061 0
1 -345 3136 0
1 345 3076 0
1 -345 3046 0
1 -345 -3016 0
1 345 -330 0
1 345 3121 0
1 -345 3091 0
1 345 3031 0
1 -345 3001 0
1 -3061 -420 0
1 -3061 3076 0
1 -3061 -330 0
1 -3061 -405 0
1 3061 345 0
1 -3061 285 0
1 -3076 3075 0
1 3076 -420 0
1 3076 3077 0
1 3076 -3061 0
1 3076 345 0
1 -3091 -420 0
1 3091 391 0
1 -3091 -361 0
1 -3091 330 0
1 -3091 -270 0
1 -3091 3090 0
1 3091 -285 0
1 -3106 420 0
1 -3106 391 0
1 360 -3076 0
1 360 3046 0
1 -360 3031 0
1 -375 3046 0
1 -375 3061 0
1 -375 -3031 0
1 405 3016 0
1 405 -3031 0
1 -3001 -360 0
1 -3001 3016 0
1 3001 495 0
1 3016 480 0
1 3016 -390 0
1 3016 3017 0
1 3016 330 0
1 -3016 405 0
1 -3031 360 0
1 3031 465 0
1 -3031 3030 0
1 3031 -375 0
1 3031 3032 0
1 -3046 420 0
1 3046 360 0
1 3046 -3031 0
1 3046 405 0
1 3046 -375 0
1 62 -77 0
1 62 -3480 0
1 62 61 0
1 -62 -63 0
1 -77 -3525 0
1 77 3495 0
1 92 3495 0
1 92 -3480 0
1 92 -93 0
1 -107 -3465 0
1 107 3510 0
1 107 3450 0
1 3480 167 0
1 3480 3495 0
1 -3480 137 0
1 3480 -183 0
1 3480 -92 0
1 -3480 62 0
1 -3495 3480 0
1 -3495 198 0
1 -3495 167 0
1 3495 -3496 0
1 3495 107 0
1 3495 152 0
1 3495 92 0
1 -3495 62 0
1 3510 168 0
1 -3510 92 0
1 3510 -62 0
1 -3525 198 0
1 3525 -107 0
1 -3525 77 0
1 -3525 92 0
1 122 -3465 0
1 -122 3435 0
1 122 3450 0
1 137 3495 0
1 -137 138 0
1 137 3450 0
1 137 -3345 0
1 -137 3480 0
1 152 167 0
1 -152 -3465 0
1 -152 3375 0
1 152 -3345 0
1 152 3390 0
1 167 -3360 0
1 -167 3330 0
1 -167 -168 0
1 167 3405 0
1 -167 3450 0
1 167 -3420 0
1 3420 -197 0
1 3420 107 0
1 3420 -3435 0
1 -3420 -3421 0
1 -3435 227 0
1 3435 -212 0
1 3435 152 0
1 3450 137 0
1 -3450 3465 0
1 -3450 -152 0
1 -3450 3451 0
1 -3465 -167 0
1 3465 -3450 0
1 -3465 183 0
1 3465 -152 0
1 -3465 92 0
1 182 -3330 0
1 -182 3300 0
1 -182 197 0
1 -182 -3270 0
1 -182 3405 0
1 182 3315 0
1 182 -181 0
1 182 183 0
1 182 3390 0
1 197 -3300 0
1 197 -3405 0
1 -197 -3315 0
1 -197 -3390 0
1 -212 -3360 0
1 212 3301 0
1 -212 3405 0
1 -212 211 0
1 212 -3316 0
1 212 -3420 0
1 227 3360 0
1 -227 -226 0
1 227 3301 0
1 -227 3405 0
1 227 3346 0
1 -227 -212 0
1 -227 3316 0
1 -227 -3420 0
1 3360 256 0
1 -3360 241 0
1 3360 152 0
1 3360 286 0
1 3375 -3360 0
1 -3375 197 0
1 -3375 167 0
1 -3375 -271 0
1 -3375 3376 0
1 3375 182 0
1 3375 -152 0
1 -3375 -317 0
1 -3390 167 0
1 -3390 302 0
1 -3390 182 0
1 3390 317 0
1 3405 -257 0
1 -3405 227 0
1 3405 302 0
1 -3405 182 0
1 3405 -152 0
1 3405 -317 0
1 -3405 3390 0
1 241 256 0
1 241 3375 0
1 -241 240 0
1 241 242 0
1 241 -3285 0
1 -256 -3360 0
1 -256 -257 0
1 256 3346 0
1 -256 -3285 0
1 256 -3255 0
1 271 -3331 0
1 271 3210 0
1 -271 -272 0
1 271 -3346 0
1 -271 -3256 0
1 -271 3225 0
1 286 -3331 0
1 -286 -3241 0
1 -286 271 0
1 286 -3316 0
1 -3301 -212 0
1 3301 3316 0
1 3316 -362 0
1 3316 -3315 0
1 -3316 212 0
1 -3316 377 0
1 3316 -286 0
1 -3331 -3330 0
1 -3331 241 0
1 -3331 -3346 0
1 -3331 212 0
1 3331 -317 0
1 -3346 3331 0
1 -3346 -362 0
1 3346 332 0
1 -3346 -3347 0
1 3346 212 0
1 -3346 377 0
1 -301 3301 0
1 -301 -3271 0
1 -301 3210 0
1 -301 300 0
1 301 3286 0
1 301 -3195 0
1 316 3301 0
1 316 3241 0
1 316 -3151 0
1 316 3256 0
1 316 -317 0
1 316 -3166 0
1 331 -3301 0
1 -331 3241 0
1 -331 3211 0
1 331 332 0
1 331 -3181 0
1 -331 3151 0
1 331 -3286 0
1 -331 3256 0
1 346 3301 0
1 -346 3271 0
1 346 -3241 0
1 -346 3256 0
1 -346 -3196 0
1 3241 391 0
1 -3241 3240 0
1 3241 -3242 0
1 -3241 -331 0
1 -3241 271 0
1 3241 436 0
1 3241 -406 0
1 3241 -316 0
1 -3256 421 0
1 -3256 -271 0
1 3256 -3257 0
1 -3256 346 0
1 3256 316 0
1 3271 3272 0
1 3271 -362 0
1 3271 -301 0
1 3271 -271 0
1 3271 -407 0
1 -3286 -421 0
1 -3286 -362 0
1 -3286 -436 0
1 -3286 -316 0
1 -3286 -286 0
1 -361 3256 0
1 361 360 0
1 361 3241 0
1 -361 -362 0
1 -361 3211 0
1 361 -3181 0
1 -361 -376 0
1 -361 3226 0
1 -376 -3106 0
1 -376 361 0
1 -376 3241 0
1 376 3211 0
1 -376 3151 0
1 -376 375 0
1 376 3256 0
1 376 -377 0
1 376 -3226 0
1 -376 3166 0
1 -391 3137 0
1 391 -3106 0
1 -391 3241 0
1 391 3181 0
1 -391 -3152 0
1 406 -3137 0
1 406 -3152 0
1 -406 3122 0
1 406 3091 0
1 -406 -3226 0
1 406 -3196 0
1 -406 3167 0
1 -3181 391 0
1 -3181 -361 0
1 3181 465 0
1 -3181 376 0
1 3181 3196 0
1 3196 391 0
1 -3196 -361 0
1 -3196 3181 0
1 -3196 435 0
1 3196 376 0
1 -3211 -391 0
1 -3211 331 0
1 3211 436 0
1 -3211 -346 0
1 -3226 -3211 0
1 3226 -496 0
1 -3226 436 0
1 3226 3225 0
1 -420 3137 0
1 -420 3076 0
1 -420 435 0
1 420 -3167 0
1 -435 -3137 0
1 -435 3106 0
1 435 -3181 0
1 -435 3152 0
1 435 -3122 0
1 -435 436 0
1 -435 -3196 0
1 -435 -3167 0
1 450 451 0
1 -450 3107 0
1 -450 3077 0
1 450 3046 0
1 -450 -3181 0
1 -450 -3122 0
1 -450 3092 0
1 -450 3031 0
1 465 3137 0
1 465 -450 0
1 -465 -3107 0
1 -465 -3092 0
1 465 3031 0
1 -3122 -480 0
1 3122 525 0
1 3122 -495 0
1 -3122 510 0
1 3137 480 0
1 -3137 -495 0
1 3152 -450 0
1 -3152 420 0
1 3152 3153 0
1 3152 -435 0
1 -3152 406 0
1 -3167 -450 0
1 3167 420 0
1 3167 496 0
1 -3167 465 0
1 -3167 -435 0
1 3167 -511 0
1 -480 -481 0
1 480 -3137 0
1 -480 -3046 0
1 480 -3122 0
1 -480 3092 0
1 -480 3001 0
1 495 480 0
1 -495 3092 0
1 -495 -3062 0
1 -495 -3031 0
1 -510 -3137 0
1 510 -3077 0
1 -510 3047 0
1 510 -3017 0
1 -510 -3032 0
1 510 -3002 0
1 -510 511 0
1 525 3137 0
1 -525 -3107 0
1 525 3077 0
1 -525 -3017 0
1 -525 526 0
1 525 -3032 0
1 -3062 3077 0
1 3062 -615 0
1 -3062 -525 0
1 3062 3061 0
1 3062 -600 0
1 3062 -510 0
1 -3077 -585 0
1 3077 -495 0
1 -3077 -3062 0
1 -3077 -570 0
1 -3092 480 0
1 -3092 -615 0
1 3092 -586 0
1 3092 -525 0
1 3092 -495 0
1 3092 3093 0
1 3092 -541 0
1 -3092 510 0
1 3107 -480 0
1 -3107 450 0
1 3107 -3108 0
1 3107 -3092 0
1 3107 -600 0
1 -540 -3077 0
1 -540 3047 0
1 540 3032 0
1 540 541 0
1 -555 3017 0
1 -570 3077 0
1 -570 585 0
1 -570 3062 0
1 585 -3077 0
1 585 -3017 0
1 -585 570 0
1 3002 675 0
1 -3002 -660 0
1 3002 -3001 0
1 -3002 3003 0
1 3002 -540 0
1 -3017 -3016 0
1 3017 570 0
1 3032 -675 0
1 3032 -645 0
1 3032 3047 0
1 3032 -585 0
1 -3032 -660 0
1 -3032 -630 0
1 3032 -3031 0
1 3032 600 0
1 -3032 570 0
1 -3032 540 0
1 3032 510 0
1 -3047 -645 0
1 3047 -615 0
1 -3047 630 0
1 -3047 3032 0
1 63 -3660 0
1 63 3705 0
1 63 -62 0
1 78 -3690 0
1 78 3660 0
1 78 77 0
1 -93 -3630 0
1 93 3600 0
1 93 -3675 0
1 93 3615 0
1 -108 -3660 0
1 108 -3675 0
1 -108 93 0
1 108 3615 0
1 -3660 108 0
1 3660 153 0
1 3660 -123 0
1 3660 -93 0
1 -3675 -3676 0
1 3675 -63 0
1 3690 108 0
1 -3690 3705 0
1 -3690 -63 0
1 -3705 3690 0
1 -3705 108 0
1 -3705 -3706 0
1 138 137 0
1 -138 3630 0
1 138 -3600 0
1 138 -3675 0
1 138 123 0
1 138 3645 0
1 138 3615 0
1 -153 3585 0
1 153 -3660 0
1 -153 -3600 0
1 153 152 0
1 -153 3675 0
1 168 -3585 0
1 168 167 0
1 168 -3570 0
1 168 3510 0
1 168 3675 0
1 -168 -3645 0
1 168 3615 0
1 -3600 228 0
1 -3600 -108 0
1 3600 -3601 0
1 -3600 213 0
1 3600 -153 0
1 3600 -3615 0
1 3615 3616 0
1 -3615 -258 0
1 3615 -168 0
1 -3615 -138 0
1 3615 -3600 0
1 3615 -243 0
1 3615 -93 0
1 -3630 3631 0
1 3630 -243 0
1 3630 93 0
1 3645 258 0
1 3645 -168 0
1 -3645 108 0
1 3645 -3630 0
1 3645 123 0
1 -3645 93 0
1 -3645 3646 0
1 183 -3585 0
1 183 198 0
1 183 3495 0
1 183 -3465 0
1 183 -3600 0
1 -183 -3540 0
1 -183 3615 0
1 198 -3585 0
1 198 -3555 0
1 -198 -197 0
1 -198 -3525 0
1 198 3495 0
1 198 -3510 0
1 -198 -183 0
1 -198 3450 0
1 213 3585 0
1 -213 228 0
1 -213 3496 0
1 -213 3481 0
1 -228 227 0
1 228 3496 0
1 228 -3570 0
1 -3540 257 0
1 3540 3555 0
1 -3540 228 0
1 -3540 168 0
1 -3540 -272 0
1 -3540 213 0
1 -3540 183 0
1 -3540 -153 0
1 -3555 198 0
1 -3555 -303 0
1 3555 272 0
1 -3555 318 0
1 3555 287 0
1 -3570 258 0
1 3570 168 0
1 3570 273 0
1 3570 -243 0
1 3570 -3571 0
1 3570 318 0
1 -3585 228 0
1 3585 198 0
1 3585 168 0
1 242 257 0
1 242 -3555 0
1 -242 3526 0
1 -242 3435 0
1 -242 -3450 0
1 257 256 0
1 257 -258 0
1 257 -3555 0
1 -257 3496 0
1 257 3465 0
1 257 -3435 0
1 -257 3405 0
1 -257 242 0
1 -257 3540 0
1 -257 3481 0
1 -257 3450 0
1 257 -3390 0
1 -272 3526 0
1 -272 3496 0
1 -272 271 0
1 -272 -273 0
1 287 3526 0
1 287 -3466 0
1 -287 3436 0
1 -287 3511 0
1 -287 3390 0
1 -3481 -3496 0
1 3481 -213 0
1 -3481 3480 0
1 -3481 -378 0
1 3481 347 0
1 3496 257 0
1 3496 3495 0
1 3496 272 0
1 -3496 -242 0
1 3511 257 0
1 -3511 -228 0
1 3511 333 0
1 3511 242 0
1 3511 378 0
1 3511 -348 0
1 -3511 -287 0
1 3526 -228 0
1 3526 -363 0
1 -3526 -303 0
1 3526 -272 0
1 3526 -242 0
1 3526 -213 0
1 3526 -3511 0
1 3526 348 0
1 -3526 -287 0
1 302 -3331 0
1 302 3466 0
1 302 3436 0
1 302 -3451 0
1 302 3421 0
1 302 317 0
1 317 3360 0
1 317 3390 0
1 -317 3496 0
1 317 -302 0
1 -317 316 0
1 -332 -3331 0
1 -332 331 0
1 347 3361 0
1 -347 -3466 0
1 347 3436 0
1 347 -346 0
1 347 -3451 0
1 -3421 -422 0
1 -3421 -362 0
1 3421 -302 0
1 -3421 272 0
1 -3421 -377 0
1 3421 -347 0
1 3421 -317 0
1 -3421 287 0
1 3436 392 0
1 3436 -332 0
1 -3436 3437 0
1 -3436 437 0
1 -3436 407 0
1 3436 377 0
1 -3436 3421 0
1 -3436 287 0
1 -3451 -422 0
1 -3451 393 0
1 3451 332 0
1 3451 -272 0
1 3451 3452 0
1 -3451 -287 0
1 3466 -422 0
1 -3466 -3465 0
1 -3466 363 0
1 3466 3467 0
1 -3466 272 0
1 3466 -378 0
1 -3466 -287 0
1 362 3331 0
1 -362 361 0
1 362 363 0
1 362 3436 0
1 -362 3376 0
1 362 -377 0
1 -362 3391 0
1 -377 -3361 0
1 377 3301 0
1 -377 3271 0
1 -377 -362 0
1 -377 3436 0
1 377 -3376 0
1 377 3316 0
1 377 3286 0
1 377 -3421 0
1 -392 3332 0
1 392 -391 0
1 392 -3436 0
1 392 -3406 0
1 392 -3286 0
1 -392 407 0
1 392 -3391 0
1 407 3332 0
1 -407 -392 0
1 -407 -3406 0
1 407 3347 0
1 407 -3317 0
1 3361 3360 0
1 -3361 362 0
1 3361 497 0
1 3361 -436 0
1 -3361 -377 0
1 3376 421 0
1 3376 392 0
1 3376 497 0
1 3376 -436 0
1 -3376 347 0
1 -3391 -482 0
1 -3391 -422 0
1 -3391 -392 0
1 3391 -362 0
1 -3391 3406 0
1 -3406 422 0
1 3406 392 0
1 -3406 -332 0
1 3406 -3407 0
1 3406 -497 0
1 3406 467 0
1 -3406 407 0
1 421 3271 0
1 -421 3302 0
1 -421 -3241 0
1 421 -3211 0
1 -421 -3347 0
1 421 436 0
1 -421 -3286 0
1 436 421 0
1 -436 -3302 0
1 436 -3376 0
1 436 -435 0
1 -436 3317 0
1 -436 -3226 0
1 -451 -3361 0
1 -451 3242 0
1 -451 466 0
1 -451 -3317 0
1 451 -3287 0
1 -451 -3257 0
1 466 451 0
1 -466 3272 0
1 466 -3211 0
1 466 465 0
1 -466 3347 0
1 -466 3287 0
1 466 3226 0
1 -3302 481 0
1 3302 -451 0
1 3302 -421 0
1 3302 -3303 0
1 -3302 -496 0
1 3302 -466 0
1 -3302 407 0
1 -3302 -511 0
1 3317 421 0
1 3317 557 0
1 -3317 496 0
1 3317 -466 0
1 -3317 436 0
1 3317 3318 0
1 -3317 -407 0
1 -3317 511 0
1 3332 512 0
1 3332 482 0
1 3332 -451 0
1 -3332 557 0
1 3332 527 0
1 -3332 -497 0
1 -3332 -436 0
1 3332 -407 0
1 -3347 -512 0
1 -3347 -482 0
1 3347 -3332 0
1 3347 421 0
1 3347 -557 0
1 3347 -3346 0
1 3347 436 0
1 -3347 -3348 0
1 3347 407 0
1 -481 482 0
1 -481 3272 0
1 481 496 0
1 481 3287 0
1 481 -3257 0
1 481 3226 0
1 -481 3196 0
1 481 -3167 0
1 -496 -481 0
1 -496 3272 0
1 496 -497 0
1 496 3317 0
1 496 3257 0
1 511 3212 0
1 -511 526 0
1 511 -3257 0
1 511 -3227 0
1 511 3167 0
1 -526 -3272 0
1 -526 3242 0
1 526 -511 0
1 -526 3212 0
1 526 -525 0
1 526 -3227 0
1 526 -3197 0
1 3242 -451 0
1 3242 -586 0
1 3242 -601 0
1 -3257 481 0
1 3257 586 0
1 -3257 -556 0
1 3257 -3256 0
1 -3257 -571 0
1 -3257 541 0
1 -3257 -511 0
1 3272 -451 0
1 3272 -3271 0
1 3272 616 0
1 -3272 -3273 0
1 3272 -587 0
1 3272 526 0
1 -3272 -496 0
1 3272 -3287 0
1 -3272 -601 0
1 3287 -481 0
1 -3287 -451 0
1 3287 616 0
1 -3287 -587 0
1 3287 557 0
1 -3287 -526 0
1 3287 572 0
1 541 -3242 0
1 -541 556 0
1 -541 -3212 0
1 -541 -3182 0
1 -541 3152 0
1 541 -3122 0
1 -556 -3242 0
1 556 -557 0
1 -556 -3182 0
1 556 3092 0
1 -571 3107 0
1 -571 586 0
1 571 3153 0
1 571 3092 0
1 571 3197 0
1 -586 3212 0
1 -586 3123 0
1 -586 571 0
1 -3182 -615 0
1 3182 -661 0
1 3182 630 0
1 -3182 571 0
1 3197 676 0
1 -3197 -615 0
1 -3197 -586 0
1 3197 3182 0
1 -3197 661 0
1 -3197 630 0
1 -3197 600 0
1 -3197 3198 0
1 3212 -676 0
1 -3212 -616 0
1 3212 -586 0
1 3212 3211 0
1 -3212 556 0
1 3212 -571 0
1 -3227 -586 0
1 -3227 526 0
1 3227 -661 0
1 3227 -601 0
1 -3227 -3228 0
1 -3227 511 0
1 600 3138 0
1 600 -615 0
1 600 -3153 0
1 600 3123 0
1 600 -3062 0
1 600 3197 0
1 -615 -3168 0
1 615 -3047 0
1 615 -616 0
1 615 -3182 0
1 615 -3092 0
1 615 -3062 0
1 -630 3078 0
1 630 3182 0
1 630 3153 0
1 630 -3063 0
1 630 -3197 0
1 645 646 0
1 645 -3123 0
1 -645 -3093 0
1 -3123 705 0
1 -3123 -675 0
1 -3123 645 0
1 3123 690 0
1 -3123 -600 0
1 3123 571 0
1 -3138 736 0
1 -3138 -705 0
1 3138 -3137 0
1 -3138 -675 0
1 3138 645 0
1 -3138 721 0
1 3138 -690 0
1 -3138 -660 0
1 3138 600 0
1 -3153 -706 0
1 3153 -645 0
1 -3153 -600 0
1 -3153 -571 0
1 3168 -736 0
1 3168 706 0
1 -3168 -676 0
1 3168 -615 0
1 3168 721 0
1 3168 600 0
1 3168 -571 0
1 660 -3138 0
1 660 3047 0
1 660 3032 0
1 -675 -3017 0
1 675 -3123 0
1 675 660 0
1 -675 -3032 0
1 675 3002 0
1 -690 705 0
1 -690 -3018 0
1 690 3123 0
1 -705 3108 0
1 705 -3078 0
1 705 3093 0
1 -705 -3063 0
1 -3063 -705 0
1 -3063 645 0
1 3063 -630 0
1 -3078 -705 0
1 -3078 -675 0
1 -3078 -3077 0
1 3078 660 0
1 -3078 -3063 0
1 3078 -735 0
1 3093 3108 0
1 3093 -751 0
1 -3093 721 0
1 -3093 3092 0
1 -3093 766 0
1 3108 705 0
1 -3108 751 0
1 -3108 -690 0
1 3108 630 0
1 -720 -3078 0
1 -720 721 0
1 720 3063 0
1 735 3078 0
1 735 -3018 0
1 750 -3048 0
1 -750 3018 0
1 765 750 0
1 765 -3063 0
1 765 -3033 0
1 -765 3003 0
1 -765 -766 0
1 -3003 -705 0
1 -3003 -3018 0
1 -3003 -765 0
1 3033 -3048 0
1 3033 720 0
1 -3048 -3047 0
1 3048 -750 0
1 -3048 -720 0
1 -3048 690 0
1 243 258 0
1 243 242 0
1 243 -3645 0
1 -258 -257 0
1 -258 -3585 0
1 -258 3691 0
1 -258 243 0
1 -258 3645 0
1 273 3616 0
1 273 3691 0
1 -273 -3661 0
1 -273 3631 0
1 -273 -272 0
1 -273 -3646 0
1 -288 273 0
1 -288 3570 0
1 -288 3601 0
1 3661 303 0
1 -3661 -243 0
1 -3661 318 0
1 3661 -3676 0
1 -3676 -258 0
1 -3676 333 0
1 3691 -288 0
1 3691 258 0
1 -3691 -243 0
1 3706 -3707 0
1 -3706 -273 0
1 -303 3555 0
1 303 3526 0
1 -303 3661 0
1 -303 -3631 0
1 -303 -3511 0
1 303 3676 0
1 -318 -3616 0
1 318 -3661 0
1 318 3511 0
1 -318 -3676 0
1 -333 3586 0
1 333 -332 0
1 -333 -3661 0
1 333 -3511 0
1 333 -348 0
1 -348 333 0
1 -348 -3661 0
1 348 3601 0
1 348 -3676 0
1 3601 -3616 0
1 3601 -393 0
1 -3601 303 0
1 -3601 438 0
1 -3601 408 0
1 3601 -378 0
1 -3601 348 0
1 3616 3617 0
1 -3616 393 0
1 3616 -3601 0
1 -3616 -408 0
1 3616 -348 0
1 -3616 -3615 0
1 3631 -288 0
1 -3631 423 0
1 3631 303 0
1 -3631 273 0
1 -3646 -288 0
1 -3646 -3631 0
1 3646 -348 0
1 -3646 3647 0
1 363 3616 0
1 363 362 0
1 363 -3601 0
1 363 -3541 0
1 363 3511 0
1 363 -3451 0
1 378 -3556 0
1 -378 -3526 0
1 378 -3481 0
1 -378 -3511 0
1 -378 377 0
1 -393 -3512 0
1 393 3571 0
1 393 -408 0
1 393 3482 0
1 -408 3616 0
1 -408 3497 0
1 -408 -3541 0
1 408 -3512 0
1 -3541 3556 0
1 3541 -422 0
1 -3541 -498 0
1 3541 -467 0
1 -3541 -437 0
1 -3556 3555 0
1 3556 -363 0
1 -3556 378 0
1 3571 -3586 0
1 3571 483 0
1 -3571 363 0
1 -3571 333 0
1 -3571 -498 0
1 3571 -3572 0
1 3571 -438 0
1 -3571 408 0
1 3586 -423 0
1 -3586 393 0
1 3586 498 0
1 -3586 -468 0
1 -3586 -378 0
1 422 3556 0
1 422 -423 0
1 -422 -3466 0
1 -422 -3436 0
1 422 -3406 0
1 -422 3541 0
1 422 3482 0
1 -437 -3406 0
1 437 -438 0
1 437 3421 0
1 452 -3556 0
1 -452 -453 0
1 452 -3497 0
1 -452 3437 0
1 452 3406 0
1 452 -3512 0
1 452 3452 0
1 467 452 0
1 467 3556 0
1 -467 -3527 0
1 -467 -3497 0
1 467 3406 0
1 467 466 0
1 -467 -468 0
1 -467 3541 0
1 -467 -3422 0
1 -3482 422 0
1 3482 393 0
1 -3482 -558 0
1 3482 497 0
1 3482 -467 0
1 -3482 -437 0
1 3497 -512 0
1 3497 452 0
1 -3497 -3498 0
1 3497 -497 0
1 -3497 -467 0
1 -3497 -408 0
1 -3512 -483 0
1 -3512 -422 0
1 3512 3527 0
1 3512 528 0
1 -3512 467 0
1 -3527 513 0
1 3527 -483 0
1 3527 3526 0
1 3527 437 0
1 -3527 -543 0
1 482 -481 0
1 -482 -483 0
1 -482 -3467 0
1 -482 3406 0
1 482 3452 0
1 482 -3422 0
1 482 -3391 0
1 497 -3361 0
1 -497 3467 0
1 -497 3406 0
1 -497 -496 0
1 497 3376 0
1 -497 -3347 0
1 497 -3391 0
1 512 -3392 0
1 512 -3497 0
1 512 -3437 0
1 -512 3452 0
1 -512 511 0
1 527 512 0
1 -527 -3497 0
1 -527 -3437 0
1 -527 -3407 0
1 527 528 0
1 3422 482 0
1 3422 452 0
1 -3422 3437 0
1 -3422 -497 0
1 3422 467 0
1 3422 572 0
1 -3422 3423 0
1 -3437 -587 0
1 3437 -557 0
1 3437 3438 0
1 3437 -467 0
1 3437 -602 0
1 -3437 -572 0
1 -3452 -482 0
1 -3452 3467 0
1 -3452 558 0
1 3452 -527 0
1 3452 573 0
1 -3467 482 0
1 3467 527 0
1 3467 -467 0
1 3467 -602 0
1 -3467 -3452 0
1 -3467 543 0
1 -557 3302 0
1 557 -558 0
1 -557 -3407 0
1 572 -3362 0
1 -572 -3377 0
1 572 -3422 0
1 587 3333 0
1 -587 3303 0
1 587 586 0
1 587 -3318 0
1 3362 527 0
1 -3362 -3377 0
1 3362 -601 0
1 3377 3362 0
1 3377 557 0
1 3392 512 0
1 -3392 -617 0
1 3392 -527 0
1 3392 -3407 0
1 -3392 632 0
1 3407 3392 0
1 -3407 -677 0
1 3407 -617 0
1 -3407 587 0
1 3407 -527 0
1 3407 632 0
1 3407 -602 0
1 -3407 -572 0
1 601 -3303 0
1 -601 -3272 0
1 -601 3348 0
1 601 3287 0
1 -601 3257 0
1 -601 602 0
1 -601 3227 0
1 616 -3242 0
1 -616 3303 0
1 -616 3212 0
1 -616 -3377 0
1 -616 601 0
1 -631 3362 0
1 631 -646 0
1 -631 3303 0
1 -631 3377 0
1 -631 -3318 0
1 -631 -632 0
1 -631 -3258 0
1 -646 3333 0
1 -646 -3303 0
1 646 -3273 0
1 -646 -3243 0
1 -646 -3212 0
1 646 -631 0
1 -3303 -706 0
1 -3303 646 0
1 3303 -616 0
1 3303 587 0
1 3303 722 0
1 -3303 -661 0
1 -3303 -572 0
1 -3318 -737 0
1 -3318 676 0
1 3318 661 0
1 3318 -601 0
1 3318 572 0
1 -3333 -677 0
1 -3333 -587 0
1 3333 -722 0
1 3333 692 0
1 3333 -631 0
1 3333 601 0
1 -3333 -572 0
1 3348 -737 0
1 -3348 -707 0
1 -3348 3347 0
1 3348 -631 0
1 -3348 -572 0
1 661 -676 0
1 -661 3303 0
1 661 -3273 0
1 -661 -660 0
1 -661 -3258 0
1 661 3197 0
1 -676 -3212 0
1 -676 3258 0
1 -691 -3213 0
1 -691 3183 0
1 691 -3258 0
1 -691 -3198 0
1 -706 -3168 0
1 -706 705 0
1 -706 707 0
1 -706 3273 0
1 706 -3243 0
1 -706 -3213 0
1 706 3183 0
1 706 -691 0
1 706 3288 0
1 706 3258 0
1 -706 3228 0
1 3243 646 0
1 -3243 3242 0
1 -3243 751 0
1 3243 691 0
1 -3243 -661 0
1 -3243 3258 0
1 -3243 -766 0
1 3258 -646 0
1 3258 721 0
1 -3258 3257 0
1 -3273 706 0
1 -3273 -676 0
1 -3273 -691 0
1 -3273 631 0
1 -3273 -767 0
1 -3288 -646 0
1 3288 3273 0
1 3288 752 0
1 -3288 -691 0
1 -3288 -3287 0
1 -3288 -767 0
1 -721 -736 0
1 -721 -3168 0
1 721 -3138 0
1 721 -3213 0
1 721 -3183 0
1 -721 -3093 0
1 721 3258 0
1 721 3228 0
1 721 -3198 0
1 -736 3168 0
1 736 3138 0
1 -736 3108 0
1 736 3123 0
1 -736 -3258 0
1 -736 3228 0
1 -736 3198 0
1 -751 -3108 0
1 -751 3258 0
1 751 3183 0
1 -751 -3198 0
1 751 -3228 0
1 766 -3243 0
1 -766 751 0
1 -766 -3093 0
1 -766 3228 0
1 -766 765 0
1 3183 706 0
1 3183 3182 0
1 3183 691 0
1 -3183 -3198 0
1 -3183 766 0
1 -3198 -3197 0
1 3213 721 0
1 -3213 3228 0
1 3228 -706 0
1 -3228 691 0
1 -3228 766 0
1 423 3586 0
1 423 3631 0
1 423 -3571 0
1 438 3586 0
1 -438 3631 0
1 -438 3571 0
1 438 -3707 0
1 453 -3617 0
1 -453 -3586 0
1 -453 3662 0
1 -453 -3632 0
1 -453 3602 0
1 468 -3617 0
1 -468 -3586 0
1 -468 3632 0
1 -468 467 0
1 468 3677 0
1 3662 513 0
1 -3662 -483 0
1 -3662 -453 0
1 -3662 423 0
1 3662 3661 0
1 -3662 -3663 0
1 -3662 468 0
1 3662 3677 0
1 3677 -528 0
1 -3677 -498 0
1 -3677 -468 0
1 -3677 -3676 0
1 3692 -423 0
1 -3692 -3707 0
1 3707 -453 0
1 3707 423 0
1 -3707 3692 0
1 -3707 468 0
1 3707 -438 0
1 3707 3706 0
1 3707 3708 0
1 483 -3527 0
1 -483 3662 0
1 483 3602 0
1 483 -3541 0
1 483 3512 0
1 -483 -3677 0
1 483 -3647 0
1 498 -3586 0
1 -498 3556 0
1 -498 -3662 0
1 498 -3512 0
1 -498 -3647 0
1 -513 -3557 0
1 -513 -3527 0
1 -513 -3662 0
1 513 -3542 0
1 -513 -3512 0
1 -528 513 0
1 528 -3617 0
1 -528 3587 0
1 528 3527 0
1 528 -3662 0
1 -528 -3602 0
1 528 -3512 0
1 -528 3677 0
1 -3602 513 0
1 3602 -483 0
1 -3602 -453 0
1 -3602 618 0
1 -3602 3601 0
1 3602 -3603 0
1 3602 -543 0
1 3617 513 0
1 3617 -483 0
1 -3617 453 0
1 3617 588 0
1 -3617 558 0
1 -3617 -603 0
1 3617 -573 0
1 -3632 -513 0
1 3632 -483 0
1 -3632 453 0
1 -3632 -528 0
1 3632 -3633 0
1 3632 -603 0
1 3632 -3647 0
1 -3647 -3648 0
1 -3647 483 0
1 3647 -3646 0
1 3647 498 0
1 -3647 -603 0
1 543 -3587 0
1 543 -3527 0
1 -543 3497 0
1 543 -558 0
1 543 -3602 0
1 -543 -3572 0
1 -543 -3542 0
1 543 -3512 0
1 558 -3557 0
1 -558 3527 0
1 558 -3497 0
1 558 -3482 0
1 -558 543 0
1 573 -3557 0
1 -573 3498 0
1 -573 3467 0
1 -573 -588 0
1 -573 3572 0
1 573 3452 0
1 588 -3467 0
1 -588 -587 0
1 588 3602 0
1 588 3542 0
1 3542 513 0
1 -3542 -3543 0
1 -3542 -678 0
1 3542 647 0
1 -3542 617 0
1 3542 -588 0
1 -3542 -558 0
1 3542 -3541 0
1 3542 -663 0
1 -3542 573 0
1 -3557 513 0
1 3557 678 0
1 -3557 647 0
1 -3557 -617 0
1 3557 -588 0
1 3557 3542 0
1 -3557 632 0
1 -3557 602 0
1 3572 -3587 0
1 3572 648 0
1 3572 -618 0
1 -3572 3571 0
1 3572 -573 0
1 3587 -3588 0
1 3587 -618 0
1 3587 588 0
1 3587 528 0
1 -3587 -663 0
1 3587 603 0
1 -3587 -573 0
1 -602 -3392 0
1 -602 617 0
1 -602 -3498 0
1 602 3467 0
1 602 3422 0
1 -617 -3392 0
1 -617 3557 0
1 -617 616 0
1 -617 -3467 0
1 617 -3437 0
1 -617 3542 0
1 -617 3483 0
1 -617 3452 0
1 632 -647 0
1 632 -3528 0
1 -632 3498 0
1 632 -3438 0
1 -647 3392 0
1 647 646 0
1 647 -648 0
1 647 -3498 0
1 647 -3407 0
1 647 3542 0
1 647 -632 0
1 -647 3483 0
1 -647 3453 0
1 -647 3423 0
1 3483 738 0
1 -3483 -647 0
1 -3483 617 0
1 -3483 -3498 0
1 -3483 588 0
1 -3483 3482 0
1 3483 723 0
1 3483 -632 0
1 3483 -602 0
1 3498 -707 0
1 -3498 -677 0
1 3498 -3497 0
1 3498 -588 0
1 -3498 -692 0
1 -3498 -662 0
1 -3498 -632 0
1 -3513 738 0
1 3513 647 0
1 -3513 3512 0
1 3513 3528 0
1 3513 -723 0
1 -3513 -663 0
1 3528 -678 0
1 -3528 3527 0
1 3528 617 0
1 3528 -588 0
1 -3528 723 0
1 -3528 663 0
1 3528 -3513 0
1 -3528 573 0
1 662 -3392 0
1 662 -677 0
1 662 3407 0
1 -662 3377 0
1 662 3483 0
1 -677 3392 0
1 677 676 0
1 677 -3498 0
1 677 -3468 0
1 677 3438 0
1 677 3407 0
1 677 3377 0
1 677 3483 0
1 677 -3423 0
1 -692 707 0
1 -692 -3438 0
1 -692 -3408 0
1 692 691 0
1 692 -3348 0
1 692 693 0
1 -692 3483 0
1 -692 3423 0
1 -707 -3393 0
1 -707 -706 0
1 -707 3363 0
1 707 708 0
1 707 -3333 0
1 -707 3498 0
1 707 3438 0
1 -3423 737 0
1 -3423 -707 0
1 -3423 -677 0
1 -3423 -3438 0
1 -3423 752 0
1 3423 692 0
1 -3423 632 0
1 3423 767 0
1 3438 -677 0
1 -3438 -3437 0
1 3438 692 0
1 3453 -768 0
1 -3453 -738 0
1 3453 -677 0
1 -3453 -753 0
1 -3453 -3452 0
1 -3468 768 0
1 3468 647 0
1 3468 753 0
1 -3468 -723 0
1 -3468 692 0
1 -722 -3393 0
1 -722 -3303 0
1 722 3378 0
1 -722 -3318 0
1 737 736 0
1 -737 -738 0
1 -737 3333 0
1 737 -3273 0
1 -737 3408 0
1 737 -722 0
1 -737 3378 0
1 -737 3423 0
1 752 -3393 0
1 -752 751 0
1 752 3378 0
1 752 -3288 0
1 767 3393 0
1 767 3363 0
1 767 3408 0
1 -767 -3378 0
1 -767 -3288 0
1 767 -3423 0
1 -3363 -707 0
1 -3363 752 0
1 -3363 3378 0
1 3378 707 0
1 -3378 -3363 0
1 -3378 -3377 0
1 3393 3392 0
1 3393 737 0
1 -3393 -707 0
1 3393 -3408 0
1 3393 722 0
1 3408 -737 0
1 3408 -3393 0
1 -3408 3407 0
1 3408 -752 0
1 3408 722 0
1 -3408 -692 0
1 603 -3708 0
1 -603 -3587 0
1 -603 -618 0
1 603 -3663 0
1 603 3602 0
1 603 -602 0
1 -603 -3678 0
1 618 3693 0
1 618 3632 0
1 -618 3572 0
1 618 -3708 0
1 -618 3647 0
1 633 -3648 0
1 633 -3587 0
1 633 648 0
1 -633 3693 0
1 633 3633 0
1 -633 3603 0
1 633 3572 0
1 633 632 0
1 648 3648 0
1 -648 3603 0
1 648 633 0
1 3663 678 0
1 3663 648 0
1 3663 3678 0
1 -3663 693 0
1 3678 708 0
1 -3678 693 0
1 3678 -3677 0
1 3693 603 0
1 3693 3708 0
1 -3708 -618 0
1 -3708 603 0
1 -663 -3587 0
1 663 -3557 0
1 -663 3663 0
1 -663 3633 0
1 -663 -662 0
1 678 -3648 0
1 -678 -3618 0
1 -678 -3557 0
1 -678 -3663 0
1 678 3542 0
1 678 -3678 0
1 -693 -3618 0
1 693 3588 0
1 -693 3558 0
1 693 3528 0
1 693 -3633 0
1 -693 -3573 0
1 -693 3513 0
1 -693 3678 0
1 -708 -707 0
1 -708 3558 0
1 -708 3603 0
1 708 693 0
1 -708 3573 0
1 708 -3543 0
1 708 3513 0
1 -708 3678 0
1 -3603 -768 0
1 3603 -738 0
1 -3603 708 0
1 -3603 -648 0
1 3603 693 0
1 3618 -768 0
1 -3618 -678 0
1 3618 753 0
1 3618 663 0
1 3618 -633 0
1 -3633 648 0
1 3633 3632 0
1 -3633 -693 0
1 -3633 633 0
1 3648 708 0
1 3648 3633 0
1 723 3618 0
1 -723 -3528 0
1 723 3468 0
1 -723 722 0
1 723 -3483 0
1 -738 3618 0
1 -738 -3558 0
1 738 -3498 0
1 738 3543 0
1 -738 -3483 0
1 753 -3588 0
1 -753 -3558 0
1 753 -3468 0
1 -753 -3543 0
1 -768 3603 0
1 -768 -3573 0
1 768 -3543 0
1 768 3453 0
1 3543 768 0
1 3543 -708 0
1 3543 3558 0
1 3543 -723 0
1 3543 3542 0
1 3558 768 0
1 3558 -708 0
1 -3558 -723 0
1 -3573 -3588 0
1 -3573 753 0
1 3573 -3572 0
1 3588 -3587 0
1 -3588 708 0
1 -3588 -3573 0
